
Gurobi 11.0.3 (linux64) logging started Sat Nov 23 17:04:54 2024

Set parameter LogFile to value "/home/yihong/Coding/OR_SUC/SUC_results_bigM100000_thread4/case24_ieee_rts_theta0.5_epsilon0.025_gurobi_seed130000_num_gen100_N_WDR150_load_scaling_factor1_proposed_T24quadra_cost.txt"
Set parameter TimeLimit to value 3600
Gurobi Optimizer version 11.0.3 build v11.0.3rc0 (linux64 - "Ubuntu 20.04.6 LTS")

CPU model: AMD EPYC 7532 32-Core Processor, instruction set [SSE2|AVX|AVX2]
Thread count: 64 physical cores, 128 logical processors, using up to 4 threads

Optimize a model with 53864 rows, 29911 columns and 911262 nonzeros
Model fingerprint: 0x3e10d762
Model has 2400 quadratic constraints
Variable types: 27511 continuous, 2400 integer (2400 binary)
Coefficient statistics:
  Matrix range     [3e-04, 3e+03]
  QMatrix range    [2e-03, 8e-03]
  QLMatrix range   [7e-01, 6e+01]
  Objective range  [1e+00, 1e+00]
  Bounds range     [1e+00, 1e+00]
  RHS range        [1e+00, 9e+03]
Presolve removed 43798 rows and 12840 columns
Presolve time: 0.30s
Presolved: 10066 rows, 17071 columns, 54920 nonzeros
Presolved model has 2400 quadratic constraint(s)
Variable types: 14671 continuous, 2400 integer (2400 binary)

Root relaxation: objective 7.627927e+04, 8594 iterations, 0.22 seconds (0.31 work units)

    Nodes    |    Current Node    |     Objective Bounds      |     Work
 Expl Unexpl |  Obj  Depth IntInf | Incumbent    BestBd   Gap | It/Node Time

     0     0 76279.2705    0   24          - 76279.2705      -     -    0s
     0     0 361739.476    0  633          - 361739.476      -     -    1s
     0     0 419406.977    0  594          - 419406.977      -     -    1s
     0     0 634751.445    0  570          - 634751.445      -     -    1s
     0     0 634780.140    0  394          - 634780.140      -     -    1s
     0     0 635044.644    0  322          - 635044.644      -     -    1s
     0     0 635046.637    0  322          - 635046.637      -     -    1s
     0     0 635046.637    0  322          - 635046.637      -     -    1s
     0     0 635047.974    0  322          - 635047.974      -     -    1s
     0     2 635047.974    0  322          - 635047.974      -     -    2s
H  444   338                    635348.04035 635074.657  0.04%  28.3    3s
*  444   338             141    635348.04035 635074.657  0.04%  28.3    3s

Cutting planes:
  Gomory: 2
  Implied bound: 275
  MIR: 112
  Flow cover: 71
  RLT: 3

Explored 459 nodes (36445 simplex iterations) in 4.46 seconds (5.77 work units)
Thread count was 4 (of 128 available processors)

Solution count 2: 635348 635348 

Optimal solution found (tolerance 1.00e-03)
Warning: max constraint violation (7.0471e-07) exceeds tolerance
Best objective 6.353480403593e+05, best bound 6.350746565957e+05, gap 0.0430%
